<?xml version = "1.0" encoding="UTF-8" standalone="yes"?>
<CPLEXSolution version="1.2">
 <header
   problemName="IloCplex"
   solutionName="p0"
   solutionIndex="-1"
   objectiveValue="-3086875412"
   solutionTypeValue="3"
   solutionTypeString="primal"
   solutionStatusValue="127"
   solutionStatusString="integer feasible solution"
   solutionMethodString="mip"
   primalFeasible="0"
   dualFeasible="0"
   writeLevel="3"/>
 <quality
   epInt="1.0000000000000001e-05"
   epRHS="9.9999999999999995e-07"
   maxIntInfeas="0"
   maxPrimalInfeas="0"
   maxX="1"
   maxSlack="1"/>
 <variables>
  <variable name="w2_1" index="35" value="1"/>
  <variable name="w2_4" index="38" value="1"/>
  <variable name="w2_7" index="41" value="1"/>
  <variable name="w2_8" index="42" value="1"/>
  <variable name="w2_9" index="43" value="1"/>
  <variable name="w2_10" index="44" value="1"/>
  <variable name="w2_11" index="45" value="1"/>
  <variable name="w2_13" index="47" value="1"/>
  <variable name="w2_14" index="48" value="1"/>
  <variable name="w2_15" index="49" value="1"/>
  <variable name="w3_1" index="52" value="1"/>
  <variable name="w3_4" index="55" value="1"/>
  <variable name="w3_7" index="58" value="1"/>
  <variable name="w3_8" index="59" value="1"/>
  <variable name="w3_9" index="60" value="1"/>
  <variable name="w3_10" index="61" value="1"/>
  <variable name="w3_11" index="62" value="1"/>
  <variable name="w3_13" index="64" value="1"/>
  <variable name="w3_14" index="65" value="1"/>
  <variable name="w3_15" index="66" value="1"/>
  <variable name="w5_1" index="86" value="1"/>
  <variable name="w5_4" index="89" value="1"/>
  <variable name="w5_7" index="92" value="1"/>
  <variable name="w5_8" index="93" value="1"/>
  <variable name="w5_9" index="94" value="1"/>
  <variable name="w5_10" index="95" value="1"/>
  <variable name="w5_11" index="96" value="1"/>
  <variable name="w5_13" index="98" value="1"/>
  <variable name="w5_14" index="99" value="1"/>
  <variable name="w5_15" index="100" value="1"/>
  <variable name="w6_1" index="103" value="1"/>
  <variable name="w6_4" index="106" value="1"/>
  <variable name="w6_7" index="109" value="1"/>
  <variable name="w6_8" index="110" value="1"/>
  <variable name="w6_9" index="111" value="1"/>
  <variable name="w6_10" index="112" value="1"/>
  <variable name="w6_11" index="113" value="1"/>
  <variable name="w6_13" index="115" value="1"/>
  <variable name="w6_14" index="116" value="1"/>
  <variable name="w6_15" index="117" value="1"/>
  <variable name="w7_1" index="120" value="1"/>
  <variable name="w7_4" index="123" value="1"/>
  <variable name="w7_7" index="126" value="1"/>
  <variable name="w7_8" index="127" value="1"/>
  <variable name="w7_9" index="128" value="1"/>
  <variable name="w7_10" index="129" value="1"/>
  <variable name="w7_11" index="130" value="1"/>
  <variable name="w7_13" index="132" value="1"/>
  <variable name="w7_14" index="133" value="1"/>
  <variable name="w7_15" index="134" value="1"/>
  <variable name="w8_1" index="137" value="1"/>
  <variable name="w8_4" index="140" value="1"/>
  <variable name="w8_7" index="143" value="1"/>
  <variable name="w8_8" index="144" value="1"/>
  <variable name="w8_9" index="145" value="1"/>
  <variable name="w8_10" index="146" value="1"/>
  <variable name="w8_11" index="147" value="1"/>
  <variable name="w8_13" index="149" value="1"/>
  <variable name="w8_14" index="150" value="1"/>
  <variable name="w8_15" index="151" value="1"/>
  <variable name="w10_1" index="171" value="1"/>
  <variable name="w10_4" index="174" value="1"/>
  <variable name="w10_7" index="177" value="1"/>
  <variable name="w10_8" index="178" value="1"/>
  <variable name="w10_9" index="179" value="1"/>
  <variable name="w10_10" index="180" value="1"/>
  <variable name="w10_11" index="181" value="1"/>
  <variable name="w10_13" index="183" value="1"/>
  <variable name="w10_14" index="184" value="1"/>
  <variable name="w10_15" index="185" value="1"/>
  <variable name="w11_1" index="188" value="1"/>
  <variable name="w11_4" index="191" value="1"/>
  <variable name="w11_7" index="194" value="1"/>
  <variable name="w11_8" index="195" value="1"/>
  <variable name="w11_9" index="196" value="1"/>
  <variable name="w11_10" index="197" value="1"/>
  <variable name="w11_11" index="198" value="1"/>
  <variable name="w11_13" index="200" value="1"/>
  <variable name="w11_14" index="201" value="1"/>
  <variable name="w11_15" index="202" value="1"/>
  <variable name="w12_1" index="205" value="1"/>
  <variable name="w12_4" index="208" value="1"/>
  <variable name="w12_7" index="211" value="1"/>
  <variable name="w12_8" index="212" value="1"/>
  <variable name="w12_9" index="213" value="1"/>
  <variable name="w12_10" index="214" value="1"/>
  <variable name="w12_11" index="215" value="1"/>
  <variable name="w12_13" index="217" value="1"/>
  <variable name="w12_14" index="218" value="1"/>
  <variable name="w12_15" index="219" value="1"/>
  <variable name="w13_1" index="222" value="1"/>
  <variable name="w13_4" index="225" value="1"/>
  <variable name="w13_7" index="228" value="1"/>
  <variable name="w13_8" index="229" value="1"/>
  <variable name="w13_9" index="230" value="1"/>
  <variable name="w13_10" index="231" value="1"/>
  <variable name="w13_11" index="232" value="1"/>
  <variable name="w13_13" index="234" value="1"/>
  <variable name="w13_14" index="235" value="1"/>
  <variable name="w13_15" index="236" value="1"/>
  <variable name="w14_1" index="239" value="1"/>
  <variable name="w14_4" index="242" value="1"/>
  <variable name="w14_7" index="245" value="1"/>
  <variable name="w14_8" index="246" value="1"/>
  <variable name="w14_9" index="247" value="1"/>
  <variable name="w14_10" index="248" value="1"/>
  <variable name="w14_11" index="249" value="1"/>
  <variable name="w14_13" index="251" value="1"/>
  <variable name="w14_14" index="252" value="1"/>
  <variable name="w14_15" index="253" value="1"/>
  <variable name="w15_1" index="256" value="1"/>
  <variable name="w15_4" index="259" value="1"/>
  <variable name="w15_7" index="262" value="1"/>
  <variable name="w15_8" index="263" value="1"/>
  <variable name="w15_9" index="264" value="1"/>
  <variable name="w15_10" index="265" value="1"/>
  <variable name="w15_11" index="266" value="1"/>
  <variable name="w15_13" index="268" value="1"/>
  <variable name="w15_14" index="269" value="1"/>
  <variable name="w15_15" index="270" value="1"/>
  <variable name="w16_1" index="273" value="1"/>
  <variable name="w16_4" index="276" value="1"/>
  <variable name="w16_7" index="279" value="1"/>
  <variable name="w16_8" index="280" value="1"/>
  <variable name="w16_9" index="281" value="1"/>
  <variable name="w16_10" index="282" value="1"/>
  <variable name="w16_11" index="283" value="1"/>
  <variable name="w16_13" index="285" value="1"/>
  <variable name="w16_14" index="286" value="1"/>
  <variable name="w16_15" index="287" value="1"/>
  <variable name="w17_1" index="290" value="1"/>
  <variable name="w17_4" index="293" value="1"/>
  <variable name="w17_7" index="296" value="1"/>
  <variable name="w17_8" index="297" value="1"/>
  <variable name="w17_9" index="298" value="1"/>
  <variable name="w17_10" index="299" value="1"/>
  <variable name="w17_11" index="300" value="1"/>
  <variable name="w17_13" index="302" value="1"/>
  <variable name="w17_14" index="303" value="1"/>
  <variable name="w17_15" index="304" value="1"/>
  <variable name="w18_1" index="307" value="1"/>
  <variable name="w18_4" index="310" value="1"/>
  <variable name="w18_7" index="313" value="1"/>
  <variable name="w18_8" index="314" value="1"/>
  <variable name="w18_9" index="315" value="1"/>
  <variable name="w18_10" index="316" value="1"/>
  <variable name="w18_11" index="317" value="1"/>
  <variable name="w18_13" index="319" value="1"/>
  <variable name="w18_14" index="320" value="1"/>
  <variable name="w18_15" index="321" value="1"/>
  <variable name="k2" index="342" value="1"/>
  <variable name="k3" index="343" value="1"/>
  <variable name="k5" index="345" value="1"/>
  <variable name="k6" index="346" value="1"/>
  <variable name="k7" index="347" value="1"/>
  <variable name="k8" index="348" value="1"/>
  <variable name="k10" index="350" value="1"/>
  <variable name="k11" index="351" value="1"/>
  <variable name="k12" index="352" value="1"/>
  <variable name="k13" index="353" value="1"/>
  <variable name="k14" index="354" value="1"/>
  <variable name="k15" index="355" value="1"/>
  <variable name="k16" index="356" value="1"/>
  <variable name="k17" index="357" value="1"/>
  <variable name="k18" index="358" value="1"/>
  <variable name="x0_71" index="431" value="1"/>
  <variable name="x1_51" index="511" value="1"/>
  <variable name="x2_46" index="606" value="1"/>
  <variable name="x3_68" index="728" value="1"/>
  <variable name="x4_72" index="832" value="1"/>
  <variable name="x5_40" index="900" value="1"/>
  <variable name="x6_35" index="995" value="1"/>
  <variable name="x7_90" index="1150" value="1"/>
  <variable name="x8_67" index="1227" value="1"/>
  <variable name="x9_85" index="1345" value="1"/>
  <variable name="x10_99" index="1459" value="1"/>
  <variable name="x11_95" index="1555" value="1"/>
  <variable name="x12_92" index="1652" value="1"/>
  <variable name="x13_70" index="1730" value="1"/>
  <variable name="x14_87" index="1847" value="1"/>
  <variable name="x15_29" index="1889" value="1"/>
  <variable name="x16_83" index="2043" value="1"/>
  <variable name="x17_26" index="2086" value="1"/>
  <variable name="x18_28" index="2188" value="1"/>
  <variable name="x19_94" index="2354" value="1"/>
  <variable name="x20_30" index="2390" value="1"/>
  <variable name="x21_58" index="2518" value="1"/>
  <variable name="x22_61" index="2621" value="1"/>
  <variable name="x23_76" index="2736" value="1"/>
  <variable name="x24_54" index="2814" value="1"/>
  <variable name="x25_80" index="2940" value="1"/>
  <variable name="x26_79" index="3039" value="1"/>
  <variable name="x27_91" index="3151" value="1"/>
  <variable name="x28_14" index="3174" value="1"/>
  <variable name="x29_9" index="3269" value="1"/>
  <variable name="x30_88" index="3448" value="1"/>
  <variable name="x31_31" index="3491" value="1"/>
  <variable name="x32_57" index="3617" value="1"/>
  <variable name="x33_65" index="3725" value="1"/>
  <variable name="x34_6" index="3766" value="1"/>
  <variable name="x35_59" index="3919" value="1"/>
  <variable name="x36_60" index="4020" value="1"/>
  <variable name="x37_55" index="4115" value="1"/>
  <variable name="x38_52" index="4212" value="1"/>
  <variable name="x39_97" index="4357" value="1"/>
  <variable name="x40_1" index="4361" value="1"/>
  <variable name="x41_21" index="4481" value="1"/>
  <variable name="x42_5" index="4565" value="1"/>
  <variable name="x43_93" index="4753" value="1"/>
  <variable name="x44_44" index="4804" value="1"/>
  <variable name="x45_78" index="4938" value="1"/>
  <variable name="x46_8" index="4968" value="1"/>
  <variable name="x47_10" index="5070" value="1"/>
  <variable name="x48_75" index="5235" value="1"/>
  <variable name="x49_16" index="5276" value="1"/>
  <variable name="x50_18" index="5378" value="1"/>
  <variable name="x51_84" index="5544" value="1"/>
  <variable name="x52_32" index="5592" value="1"/>
  <variable name="x53_50" index="5710" value="1"/>
  <variable name="x54_37" index="5797" value="1"/>
  <variable name="x55_45" index="5905" value="1"/>
  <variable name="x56_27" index="5987" value="1"/>
  <variable name="x57_22" index="6082" value="1"/>
  <variable name="x58_23" index="6183" value="1"/>
  <variable name="x59_96" index="6356" value="1"/>
  <variable name="x60_62" index="6422" value="1"/>
  <variable name="x61_25" index="6485" value="1"/>
  <variable name="x62_41" index="6601" value="1"/>
  <variable name="x63_24" index="6684" value="1"/>
  <variable name="x64_7" index="6767" value="1"/>
  <variable name="x65_2" index="6862" value="1"/>
  <variable name="x66_39" index="6999" value="1"/>
  <variable name="x67_20" index="7080" value="1"/>
  <variable name="x68_74" index="7234" value="1"/>
  <variable name="x69_19" index="7279" value="1"/>
  <variable name="x70_77" index="7437" value="1"/>
  <variable name="x71_13" index="7473" value="1"/>
  <variable name="x72_56" index="7616" value="1"/>
  <variable name="x73_17" index="7677" value="1"/>
  <variable name="x74_48" index="7808" value="1"/>
  <variable name="x75_36" index="7896" value="1"/>
  <variable name="x76_34" index="7994" value="1"/>
  <variable name="x77_42" index="8102" value="1"/>
  <variable name="x78_43" index="8203" value="1"/>
  <variable name="x79_47" index="8307" value="1"/>
  <variable name="x80_69" index="8429" value="1"/>
  <variable name="x81_64" index="8524" value="1"/>
  <variable name="x82_15" index="8575" value="1"/>
  <variable name="x83_63" index="8723" value="1"/>
  <variable name="x84_81" index="8841" value="1"/>
  <variable name="x85_82" index="8942" value="1"/>
  <variable name="x86_86" index="9046" value="1"/>
  <variable name="x87_53" index="9113" value="1"/>
  <variable name="x88_49" index="9209" value="1"/>
  <variable name="x89_89" index="9349" value="1"/>
  <variable name="x90_12" index="9372" value="1"/>
  <variable name="x91_33" index="9493" value="1"/>
  <variable name="x92_4" index="9564" value="1"/>
  <variable name="x93_73" index="9733" value="1"/>
  <variable name="x94_0" index="9760" value="1"/>
  <variable name="x95_38" index="9898" value="1"/>
  <variable name="x96_66" index="10026" value="1"/>
  <variable name="x97_11" index="10071" value="1"/>
  <variable name="x98_98" index="10258" value="1"/>
  <variable name="x99_3" index="10263" value="1"/>
  <variable name="u1" index="10361" value="1"/>
  <variable name="u4" index="10364" value="1"/>
  <variable name="u7" index="10367" value="1"/>
  <variable name="u8" index="10368" value="1"/>
  <variable name="u9" index="10369" value="1"/>
  <variable name="u10" index="10370" value="1"/>
  <variable name="u11" index="10371" value="1"/>
  <variable name="u13" index="10373" value="1"/>
  <variable name="u14" index="10374" value="1"/>
  <variable name="u15" index="10375" value="1"/>
 </variables>
</CPLEXSolution>
